set VV := 0 1 2 3 4 5 6 7 8 9 10 11 12 13 14 ;
set VS := 0 1 2 3 4 5 6 7 8 9 10 11 12 13 14 15 16 17 18 19 20 21 22 23 24 25 26 27 28 29 30 31 32 33 ;
param cv := 
0 12
1 17
2 11
3 13
4 13
5 25
6 25
7 14
8 20
9 22
10 10
11 13
12 10
13 17
14 23
;
param cs := 
0 34
1 26
2 33
3 40
4 20
5 37
6 37
7 22
8 35
9 29
10 36
11 23
12 40
13 27
14 20
15 26
16 30
17 26
18 39
19 40
20 20
21 23
22 33
23 25
24 21
25 37
26 36
27 34
28 22
29 30
30 38
31 31
32 40
33 39
;
param bv:	 0 1 2 3 4 5 6 7 8 9 10 11 12 13 14 := 
		0 0 0 0 0 0 19 0 0 13 0 0 0 0 0 0 
		1 0 0 0 0 15 16 0 0 0 0 19 0 0 0 0 
		2 0 0 0 0 0 0 15 0 0 25 0 18 0 0 0 
		3 0 0 0 0 0 0 0 0 0 0 0 0 19 0 0 
		4 0 0 0 0 0 0 12 0 0 11 0 23 0 0 0 
		5 0 0 0 0 0 0 0 0 0 0 0 15 0 0 0 
		6 0 0 0 0 0 0 0 0 0 14 0 24 0 0 0 
		7 0 0 0 0 0 0 0 0 0 0 0 0 14 0 0 
		8 0 0 0 0 0 0 0 0 0 0 0 0 0 0 0 
		9 0 0 0 0 0 0 0 0 0 0 0 0 0 17 0 
		10 0 0 0 0 0 0 0 0 0 0 0 0 0 0 0 
		11 0 0 0 0 0 0 0 0 0 0 0 0 0 0 0 
		12 0 0 0 0 0 0 0 0 0 0 0 0 0 0 25 
		13 0 0 0 0 0 0 0 0 0 0 0 0 0 0 14 
		14 0 0 0 0 0 0 0 0 0 0 0 0 0 0 0 
;
param bs:	 0 1 2 3 4 5 6 7 8 9 10 11 12 13 14 15 16 17 18 19 20 21 22 23 24 25 26 27 28 29 30 31 32 33 := 
		0 0 0 0 0 0 0 0 0 0 0 31 0 0 0 0 0 0 0 0 0 0 0 0 0 0 0 0 0 0 35 0 0 0 0 
		1 0 0 0 0 0 31 0 0 0 0 0 0 0 0 0 0 0 0 0 0 0 0 0 0 0 0 0 0 0 0 0 0 0 0 
		2 0 0 0 0 0 0 0 0 30 0 0 20 0 0 0 0 0 29 0 23 0 0 39 0 0 38 0 29 0 0 0 0 25 0 
		3 0 0 0 0 0 0 39 0 0 29 0 0 0 0 0 0 0 0 28 0 0 0 0 0 0 34 0 0 0 0 0 0 0 0 
		4 0 0 0 0 0 0 0 0 24 0 0 0 0 0 0 0 0 0 0 0 0 0 0 0 0 23 0 0 0 40 0 25 0 36 
		5 0 31 0 0 0 0 32 0 0 34 0 0 0 35 0 23 0 0 0 0 0 0 31 0 29 0 0 0 0 0 0 0 38 0 
		6 0 0 0 39 0 32 0 0 0 0 0 0 0 0 0 0 0 0 0 0 0 25 0 0 0 0 0 0 0 0 0 36 0 0 
		7 0 0 0 0 0 0 0 0 0 0 0 0 0 0 0 0 0 0 24 0 0 0 39 0 0 0 0 0 0 0 0 0 0 0 
		8 0 0 30 0 24 0 0 0 0 0 0 0 0 0 0 0 0 0 0 34 38 0 0 0 0 0 37 0 0 0 37 0 0 0 
		9 0 0 0 29 0 34 0 0 0 0 0 0 37 27 0 0 0 0 0 0 0 0 0 0 33 0 0 0 31 0 0 0 0 0 
		10 31 0 0 0 0 0 0 0 0 0 0 22 0 0 0 0 0 0 0 0 0 0 0 36 0 0 0 0 0 0 36 0 0 32 
		11 0 0 20 0 0 0 0 0 0 0 22 0 0 0 0 0 0 25 39 0 0 0 29 0 0 23 0 0 0 0 0 0 0 0 
		12 0 0 0 0 0 0 0 0 0 37 0 0 0 0 0 0 0 0 0 39 0 0 26 0 23 0 0 0 0 0 0 23 23 0 
		13 0 0 0 0 0 35 0 0 0 27 0 0 0 0 0 0 0 0 0 0 0 0 0 0 0 0 0 0 0 0 0 0 0 0 
		14 0 0 0 0 0 0 0 0 0 0 0 0 0 0 0 0 0 0 0 0 0 24 0 0 0 0 0 0 0 0 0 0 0 0 
		15 0 0 0 0 0 23 0 0 0 0 0 0 0 0 0 0 0 0 0 38 0 22 0 0 0 0 0 0 0 0 0 25 0 0 
		16 0 0 0 0 0 0 0 0 0 0 0 0 0 0 0 0 0 0 0 0 0 0 24 0 0 0 0 0 0 34 0 32 0 0 
		17 0 0 29 0 0 0 0 0 0 0 0 25 0 0 0 0 0 0 0 0 0 0 0 0 0 0 0 0 0 0 0 0 0 0 
		18 0 0 0 28 0 0 0 24 0 0 0 39 0 0 0 0 0 0 0 0 0 0 31 33 0 0 0 0 0 33 0 21 0 0 
		19 0 0 23 0 0 0 0 0 34 0 0 0 39 0 0 38 0 0 0 0 38 0 0 0 0 0 0 0 0 0 0 26 0 0 
		20 0 0 0 0 0 0 0 0 38 0 0 0 0 0 0 0 0 0 0 38 0 23 0 34 0 0 0 0 0 0 0 0 0 28 
		21 0 0 0 0 0 0 25 0 0 0 0 0 0 0 24 22 0 0 0 0 23 0 0 0 0 0 0 0 0 0 0 0 0 0 
		22 0 0 39 0 0 31 0 39 0 0 0 29 26 0 0 0 24 0 31 0 0 0 0 0 40 20 0 0 0 0 0 0 0 0 
		23 0 0 0 0 0 0 0 0 0 0 36 0 0 0 0 0 0 0 33 0 34 0 0 0 0 0 32 32 0 22 0 0 0 0 
		24 0 0 0 0 0 29 0 0 0 33 0 0 23 0 0 0 0 0 0 0 0 0 40 0 0 36 0 0 0 22 0 0 0 0 
		25 0 0 38 34 23 0 0 0 0 0 0 23 0 0 0 0 0 0 0 0 0 0 20 0 36 0 0 0 0 0 0 0 0 0 
		26 0 0 0 0 0 0 0 0 37 0 0 0 0 0 0 0 0 0 0 0 0 0 0 32 0 0 0 0 0 0 0 0 0 0 
		27 0 0 29 0 0 0 0 0 0 0 0 0 0 0 0 0 0 0 0 0 0 0 0 32 0 0 0 0 0 0 0 24 0 0 
		28 0 0 0 0 0 0 0 0 0 31 0 0 0 0 0 0 0 0 0 0 0 0 0 0 0 0 0 0 0 0 0 0 0 0 
		29 35 0 0 0 40 0 0 0 0 0 0 0 0 0 0 0 34 0 33 0 0 0 0 22 22 0 0 0 0 0 0 0 0 0 
		30 0 0 0 0 0 0 0 0 37 0 36 0 0 0 0 0 0 0 0 0 0 0 0 0 0 0 0 0 0 0 0 0 0 0 
		31 0 0 0 0 25 0 36 0 0 0 0 0 23 0 0 25 32 0 21 26 0 0 0 0 0 0 0 24 0 0 0 0 33 0 
		32 0 0 25 0 0 38 0 0 0 0 0 0 23 0 0 0 0 0 0 0 0 0 0 0 0 0 0 0 0 0 0 33 0 0 
		33 0 0 0 0 36 0 0 0 0 0 32 0 0 0 0 0 0 0 0 0 28 0 0 0 0 0 0 0 0 0 0 0 0 0 
;
